Maximize
  NxS_e0 + NxS_e1 + NxS_e2 + NxS_e4 + NxS_e5 + NxS_e6 + NxS_e7 + NxS_e8 + NxS_e9 + NxS_e10 + NxS_e11 + NxS_e13 + NxS_e15 + NxS_e16 + NxS_e17
Subject to
  -S_BB_1 + S_e_0 = 0
  -S_BB_1 = 0
  -S_BB_2 + S_e_1 = 0
  -S_BB_2 + S_e_0 + S_e_7 = 0
  -S_BB_3 + S_e_2 = 0
  -S_BB_3 + S_e_1 + S_e_5 = 0
  -S_BB_4 + S_e_4 = 0
  -S_BB_4 + S_e_2 = 0
  -S_BB_5 + S_e_5 + S_e_6 = 0
  -S_BB_5 + S_e_4 = 0
  -S_BB_6 + S_e_7 + S_e_8 = 0
  -S_BB_6 + S_e_6 = 0
  -S_BB_7 + S_e_9 = 0
  -S_BB_7 + S_e_8 = 0
  -S_BB_8 + S_e_10 = 0
  -S_BB_8 + S_e_9 + S_e_16 = 0
  -S_BB_9 + S_e_11 = 0
  -S_BB_9 + S_e_10 = 0
  -S_BB_10 + S_e_13 = 0
  -S_BB_10 + S_e_11 = 0
  -S_BB_11 + S_e_15 = 0
  -S_BB_11 + S_e_13 = 0
  -S_BB_12 + S_e_16 + S_e_17 = 0
  -S_BB_12 + S_e_15 = 0
  -S_BB_13 = 0
  -S_BB_13 + S_e_17 = 0
  NxS_e0 - N <= 0
  -64 S_e_0 + NxS_e0 <= 0
  -64 S_e_0 + NxS_e0 - N >= -64
  -63 S_e_0 - N >= -64
  NxS_e1 - N <= 0
  -64 S_e_1 + NxS_e1 <= 0
  -64 S_e_1 + NxS_e1 - N >= -64
  -56 S_e_1 - N >= -64
  NxS_e2 - N <= 0
  -64 S_e_2 + NxS_e2 <= 0
  -64 S_e_2 + NxS_e2 - N >= -64
  -N >= -64
  NxS_e4 - N <= 0
  -64 S_e_4 + NxS_e4 <= 0
  -64 S_e_4 + NxS_e4 - N >= -64
  -N >= -64
  NxS_e5 - N <= 0
  -64 S_e_5 + NxS_e5 <= 0
  -64 S_e_5 + NxS_e5 - N >= -64
  -8 S_e_5 - N >= -64
  NxS_e6 - N <= 0
  -64 S_e_6 + NxS_e6 <= 0
  -64 S_e_6 + NxS_e6 - N >= -64
  -56 S_e_6 - N >= -64
  NxS_e7 - N <= 0
  -64 S_e_7 + NxS_e7 <= 0
  -64 S_e_7 + NxS_e7 - N >= -64
  -57 S_e_7 - N >= -64
  NxS_e8 - N <= 0
  -64 S_e_8 + NxS_e8 <= 0
  -64 S_e_8 + NxS_e8 - N >= -64
  -63 S_e_8 - N >= -64
  NxS_e9 - N <= 0
  -64 S_e_9 + NxS_e9 <= 0
  -64 S_e_9 + NxS_e9 - N >= -64
  -63 S_e_9 - N >= -64
  NxS_e10 - N <= 0
  -64 S_e_10 + NxS_e10 <= 0
  -64 S_e_10 + NxS_e10 - N >= -64
  -56 S_e_10 - N >= -64
  NxS_e11 - N <= 0
  -64 S_e_11 + NxS_e11 <= 0
  -64 S_e_11 + NxS_e11 - N >= -64
  -56 S_e_11 - N >= -64
  NxS_e13 - N <= 0
  -64 S_e_13 + NxS_e13 <= 0
  -64 S_e_13 + NxS_e13 - N >= -64
  -56 S_e_13 - N >= -64
  NxS_e15 - N <= 0
  -64 S_e_15 + NxS_e15 <= 0
  -64 S_e_15 + NxS_e15 - N >= -64
  -56 S_e_15 - N >= -64
  NxS_e16 - N <= 0
  -64 S_e_16 + NxS_e16 <= 0
  -64 S_e_16 + NxS_e16 - N >= -64
  -57 S_e_16 - N >= -64
  NxS_e17 - N <= 0
  -64 S_e_17 + NxS_e17 <= 0
  -64 S_e_17 + NxS_e17 - N >= -64
  -63 S_e_17 - N >= -64
  S_e_5 + S_e_7 + S_e_16 = 1
Bounds
  0 <= NxS_e0 <= 1
  0 <= NxS_e1 <= 8
  0 <= NxS_e2 <= 64
  0 <= NxS_e4 <= 64
  0 <= NxS_e5 <= 56
  0 <= NxS_e6 <= 8
  0 <= NxS_e7 <= 7
  0 <= NxS_e8 <= 1
  0 <= NxS_e9 <= 1
  0 <= NxS_e10 <= 8
  0 <= NxS_e11 <= 8
  0 <= NxS_e13 <= 8
  0 <= NxS_e15 <= 8
  0 <= NxS_e16 <= 7
  0 <= NxS_e17 <= 1
  0 <= N <= 64
General
  N
Binary
  S_BB_1 S_BB_2 S_BB_3 S_BB_4 S_BB_5 S_BB_6 S_BB_7 S_BB_8 S_BB_9 S_BB_10 S_BB_11 S_BB_12 S_BB_13 S_e_0 S_e_1 S_e_2 S_e_4 S_e_5 S_e_6 S_e_7 S_e_8 S_e_9 S_e_10 S_e_11 S_e_13 S_e_15 S_e_16 S_e_17
End
